Va_O1_1 Defect position 0.25 0.0 0.0    
   1.00000000000000     
     8.3457008510590196    0.0000000000000000    0.0000000000000000
     0.0000000000000000    8.3457008510590196    0.0000000000000000
     0.0000000000000000    0.0000000000000000    8.3457008510590196
   Mg   O 
    32    31
Direct
  0.9891506984136740  0.0005640672383862  0.9996834081526131
  0.9984685648746563  0.0005648697872331  0.4995714912595872
  0.9995925900545330  0.5007207235649673  0.9991021306107726
  0.9995794121799619  0.5001326381346587  0.4993920955868276
  0.5121718308844834  0.0004417047513456  0.0007730409220059
  0.5020075151229832  0.0004051123484388  0.5004992565260196
  0.5023570895265195  0.5007837365823136  0.0002223319064356
  0.5011518114570634  0.5001516105546955  0.5003850392295135
  0.0004370122985691  0.2504333291934913  0.2490267986048522
  0.0009793675644190  0.2507321035255856  0.7496831319366350
  0.0000390552208884  0.7500991893097080  0.2495938411427190
  0.0007872218525549  0.7506598241798983  0.7496045827029860
  0.5002093337220046  0.2503425960908956  0.2501361990869739
  0.5008457791615513  0.2504707453038719  0.7499823016675080
  0.5003804397142844  0.7500851051838779  0.2509112651918599
  0.5011777625233691  0.7505755501908311  0.7503259460945770
  0.2500214915959731  0.9999006747730164  0.2616582025512812
  0.2507367163807359  0.0002054317873785  0.7385565538533285
  0.2502504543862685  0.5000752951131275  0.2516128979552192
  0.2511103772207406  0.5007518171333416  0.7478662359402648
  0.7503378658969382  0.0004756082234039  0.2515325213002129
  0.7509329507188198  0.0008121031899790  0.7488778587511078
  0.7501329644994215  0.5000403597500309  0.2506364815602353
  0.7507456796756031  0.5005643116988239  0.7490876351033151
  0.2512211943900908  0.2622194208961730  0.9994890032889572
  0.2502882766982708  0.2514371934800010  0.4996961451435880
  0.2509246724355663  0.7390628931148910  0.0001878528797548
  0.2501700602789683  0.7487231282490825  0.5000496758403585
  0.7508144307584175  0.2524287993605654  0.9997099234818734
  0.7505840501095591  0.2509257574482078  0.4997058648996102
  0.7508732041179229  0.7488658745908765  0.0002172918373660
  0.7504465340455795  0.7496810203458040  0.5001069522512367
  0.2500757814055419  0.0000345265583590  0.5000398340680405
  0.2509935818772107  0.5005810847088270  0.9997271517862885
  0.2504075497847680  0.5000817995394229  0.4998484619298367
  0.7508205956158847  0.0006150803257725  0.0003460138416713
  0.7503532713395344  0.0006329812767163  0.5000946006588407
  0.7508040638879052  0.5005885418488276  0.9998025291674040
  0.7503529639377291  0.5000918984408074  0.4999060143189737
  0.2503359573690176  0.2476052941042681  0.2469680557509264
  0.2511138191916515  0.2479275031095796  0.7522964703856658
  0.2502074848659817  0.7524059285463167  0.2477055947973739
  0.2509110536076378  0.7529212356661574  0.7525503565224412
  0.7503743159787319  0.2497144707854275  0.2488819320893896
  0.7507413284486759  0.2499843065019718  0.7506304620777229
  0.7501485590689398  0.7508478817600448  0.2493306992432593
  0.7508806727509025  0.7512760307345658  0.7509188461291600
  0.0026769772810127  0.0003103678834009  0.2471634977660742
  0.0032356313548760  0.0005147083973824  0.7522446950855439
  0.0009843761467394  0.5002491939911877  0.2484552510323752
  0.0018453857609231  0.5007400525620866  0.7502019096985961
  0.4974457447762646  0.0001775338413310  0.2480168445959237
  0.4982580973717035  0.0003775158838693  0.7530645406173946
  0.4993609769672176  0.5000944309034310  0.2498078517694751
  0.5001036084513331  0.5005904868272282  0.7506076288118564
  0.0034805410470824  0.2480649290691517  0.9992649669120013
  0.0012147553562585  0.2494862083415441  0.4993550254067216
  0.0033468832301864  0.7531494482446845  0.9997592494416239
  0.0008158687491147  0.7511717075077726  0.4996129241425393
  0.4984542657085171  0.2479491434735053  0.0000913375740481
  0.4996316606886921  0.2494836347611411  0.5000833883433842
  0.4983985901387697  0.7530741327844268  0.0005605009119733
  0.4997945635195862  0.7511724081500262  0.5005968683138775
 
  0.00000000E+00  0.00000000E+00  0.00000000E+00
  0.00000000E+00  0.00000000E+00  0.00000000E+00
  0.00000000E+00  0.00000000E+00  0.00000000E+00
  0.00000000E+00  0.00000000E+00  0.00000000E+00
  0.00000000E+00  0.00000000E+00  0.00000000E+00
  0.00000000E+00  0.00000000E+00  0.00000000E+00
  0.00000000E+00  0.00000000E+00  0.00000000E+00
  0.00000000E+00  0.00000000E+00  0.00000000E+00
  0.00000000E+00  0.00000000E+00  0.00000000E+00
  0.00000000E+00  0.00000000E+00  0.00000000E+00
  0.00000000E+00  0.00000000E+00  0.00000000E+00
  0.00000000E+00  0.00000000E+00  0.00000000E+00
  0.00000000E+00  0.00000000E+00  0.00000000E+00
  0.00000000E+00  0.00000000E+00  0.00000000E+00
  0.00000000E+00  0.00000000E+00  0.00000000E+00
  0.00000000E+00  0.00000000E+00  0.00000000E+00
  0.00000000E+00  0.00000000E+00  0.00000000E+00
  0.00000000E+00  0.00000000E+00  0.00000000E+00
  0.00000000E+00  0.00000000E+00  0.00000000E+00
  0.00000000E+00  0.00000000E+00  0.00000000E+00
  0.00000000E+00  0.00000000E+00  0.00000000E+00
  0.00000000E+00  0.00000000E+00  0.00000000E+00
  0.00000000E+00  0.00000000E+00  0.00000000E+00
  0.00000000E+00  0.00000000E+00  0.00000000E+00
  0.00000000E+00  0.00000000E+00  0.00000000E+00
  0.00000000E+00  0.00000000E+00  0.00000000E+00
  0.00000000E+00  0.00000000E+00  0.00000000E+00
  0.00000000E+00  0.00000000E+00  0.00000000E+00
  0.00000000E+00  0.00000000E+00  0.00000000E+00
  0.00000000E+00  0.00000000E+00  0.00000000E+00
  0.00000000E+00  0.00000000E+00  0.00000000E+00
  0.00000000E+00  0.00000000E+00  0.00000000E+00
  0.00000000E+00  0.00000000E+00  0.00000000E+00
  0.00000000E+00  0.00000000E+00  0.00000000E+00
  0.00000000E+00  0.00000000E+00  0.00000000E+00
  0.00000000E+00  0.00000000E+00  0.00000000E+00
  0.00000000E+00  0.00000000E+00  0.00000000E+00
  0.00000000E+00  0.00000000E+00  0.00000000E+00
  0.00000000E+00  0.00000000E+00  0.00000000E+00
  0.00000000E+00  0.00000000E+00  0.00000000E+00
  0.00000000E+00  0.00000000E+00  0.00000000E+00
  0.00000000E+00  0.00000000E+00  0.00000000E+00
  0.00000000E+00  0.00000000E+00  0.00000000E+00
  0.00000000E+00  0.00000000E+00  0.00000000E+00
  0.00000000E+00  0.00000000E+00  0.00000000E+00
  0.00000000E+00  0.00000000E+00  0.00000000E+00
  0.00000000E+00  0.00000000E+00  0.00000000E+00
  0.00000000E+00  0.00000000E+00  0.00000000E+00
  0.00000000E+00  0.00000000E+00  0.00000000E+00
  0.00000000E+00  0.00000000E+00  0.00000000E+00
  0.00000000E+00  0.00000000E+00  0.00000000E+00
  0.00000000E+00  0.00000000E+00  0.00000000E+00
  0.00000000E+00  0.00000000E+00  0.00000000E+00
  0.00000000E+00  0.00000000E+00  0.00000000E+00
  0.00000000E+00  0.00000000E+00  0.00000000E+00
  0.00000000E+00  0.00000000E+00  0.00000000E+00
  0.00000000E+00  0.00000000E+00  0.00000000E+00
  0.00000000E+00  0.00000000E+00  0.00000000E+00
  0.00000000E+00  0.00000000E+00  0.00000000E+00
  0.00000000E+00  0.00000000E+00  0.00000000E+00
  0.00000000E+00  0.00000000E+00  0.00000000E+00
  0.00000000E+00  0.00000000E+00  0.00000000E+00
  0.00000000E+00  0.00000000E+00  0.00000000E+00
