Default POSCAR of NH3 molecule
   1.00000000000000     
    10.0000000000000000    0.0000000000000000    0.0000000000000000
     0.0000000000000000   10.0000000000000000    0.0000000000000000
     0.0000000000000000    0.0000000000000000   10.0000000000000000
   N    H 
     1     3
Direct
  0.1087355659532037  0.1087328989959602  0.1087349118033529
  0.2071616436517516  0.0920514827293388  0.0920519282154686
  0.0920509794880360  0.2071638259441571  0.0920514350124435
  0.0920518109070088  0.0920517923305582  0.2071617249687421
 
  0.00000000E+00  0.00000000E+00  0.00000000E+00
  0.00000000E+00  0.00000000E+00  0.00000000E+00
  0.00000000E+00  0.00000000E+00  0.00000000E+00
  0.00000000E+00  0.00000000E+00  0.00000000E+00
