Default POSCAR of NO2 molecule
   1.00000000000000     
    10.0000000000000000    0.0000000000000000    0.0000000000000000
     0.0000000000000000   10.0000000000000000    0.0000000000000000
     0.0000000000000000    0.0000000000000000   10.0000000000000000
   N    O 
     1     2
Direct
  0.6757708877073298  0.6805546878971356  0.0000000000000000
  0.6428903347757640  0.7942919395286410  0.0000000000000000
  0.7813387775169147  0.6251533725742249  0.0000000000000000
 
  0.00000000E+00  0.00000000E+00  0.00000000E+00
  0.00000000E+00  0.00000000E+00  0.00000000E+00
  0.00000000E+00  0.00000000E+00  0.00000000E+00
