Mg32 O31                                
   1.00000000000000     
     8.4937268427999992    0.0000000000000000    0.0000000000000000
     0.0000000000000000    8.4937268427999992    0.0000000000000000
     0.0000000000000000    0.0000000000000000    8.4937268427999992
   Mg   O 
    32    31
Direct
  0.9795004621673868  0.9997367067986360  0.9999646888868838
  0.9973511771552026  0.9994241280602409  0.5000445165583614
  0.9973579685542191  0.4996616076024551  0.9997797052328394
  0.9985591410744021  0.4994491993455057  0.4998321394229208
  0.5202885859090927  0.9999690818191453  0.0001838310534268
  0.5024298326510532  0.9996745659081796  0.5000071342867969
  0.5025210001116989  0.4998731413371189  0.9999682486905002
  0.5011861548352670  0.4996529354221551  0.4999019843512897
  0.0001823854529235  0.2494618950743543  0.2498241911489032
  0.0003229940595162  0.2494644696291388  0.7500057077629165
  0.9998799173066999  0.7497223648819045  0.2497904415071446
  0.0000188388895666  0.7496601589060674  0.7501015597654188
  0.4998322640832171  0.2496914847353864  0.2498519669807138
  0.4999444867201319  0.2496779176805290  0.7501335142360119
  0.4994395473262472  0.7498931099973305  0.2499168760485873
  0.4994887122372376  0.7498978056983105  0.7501358783899263
  0.2497983925357588  0.9995829743627027  0.2704090145643008
  0.2499567345042735  0.9995641790141718  0.7294894171042401
  0.2498352140864384  0.4995691564042772  0.2524123978457595
  0.2500385199244590  0.4995885821575712  0.7472949250687080
  0.7498900586314647  0.9998889063549683  0.2525555767581906
  0.7498697622363721  0.9998483938714813  0.7475873998487046
  0.7498892501905345  0.4998542915735982  0.2511072041981137
  0.7499633524566889  0.4998698173200324  0.7486951719526616
  0.2501309846451392  0.2701523489252509  0.9998667700757125
  0.2501400108027596  0.2519973631567467  0.4999106077764495
  0.2497066990391090  0.7292402380896874  0.9999017083422856
  0.2496472707346342  0.7470388534103591  0.4999115747142540
  0.7499712197582582  0.2523783916019795  0.0000085649037445
  0.7500060908287409  0.2508801644283807  0.4999967194145398
  0.7498130825823637  0.7474775089034509  0.0000444031877720
  0.7497562712204129  0.7485170771955723  0.5000465674082335
  0.2498939594236376  0.9995233144430173  0.5000108137777133
  0.2499488644746251  0.4997120840357852  0.9998504427566104
  0.2498890055067946  0.4994413970968381  0.4998242981491572
  0.7499042548313497  0.9999406300355247  0.0000845932170748
  0.7498509991437601  0.9997060585327944  0.5000711333180874
  0.7499214468406592  0.4999164841131289  0.9999218519669313
  0.7498691891551630  0.4996555152840472  0.4998836876080759
  0.2500050099819333  0.2437436328463960  0.2440036405979029
  0.2501273011130039  0.2438021260273615  0.7558642382422960
  0.2497170721019728  0.7555612104621048  0.2441954622176468
  0.2498350559480684  0.7554979879615829  0.7557110215854124
  0.7499902386546822  0.2483097184016145  0.2484510041761965
  0.7500309822749927  0.2482954370315653  0.7515513137124685
  0.7497769362628262  0.7514396132109056  0.2484407555411465
  0.7498049506100486  0.7514217788492203  0.7516405481276749
  0.0058735528509786  0.9996608479337610  0.2441119591755054
  0.0059709366755953  0.9996371468067338  0.7559025865287907
  0.0014130582660457  0.4995764841288448  0.2483248487478562
  0.0014989770450242  0.4995688491164785  0.7513346273940229
  0.4938705630205362  0.9998078244013229  0.2441049727325151
  0.4938882475193509  0.9998071198738430  0.7559797207165104
  0.4982901764343453  0.4997920122953872  0.2484194326038462
  0.4984973693456851  0.4997971532666199  0.7514378915902498
  0.0060487977137669  0.2437677701512442  0.9999054525638655
  0.0016646370634348  0.2479583824012082  0.4999415448721365
  0.0058871155276066  0.7555821141043495  0.9999486220728500
  0.0011603722911460  0.7510072473115343  0.4999654933402553
  0.4940981809932197  0.2440378536793020  0.0000152990235165
  0.4984907942201744  0.2481184310337170  0.4999580688698089
  0.4936493954712020  0.7558289757745484  0.0000541436410018
  0.4982084714270556  0.7512092988225376  0.4999671387465767
 
  0.00000000E+00  0.00000000E+00  0.00000000E+00
  0.00000000E+00  0.00000000E+00  0.00000000E+00
  0.00000000E+00  0.00000000E+00  0.00000000E+00
  0.00000000E+00  0.00000000E+00  0.00000000E+00
  0.00000000E+00  0.00000000E+00  0.00000000E+00
  0.00000000E+00  0.00000000E+00  0.00000000E+00
  0.00000000E+00  0.00000000E+00  0.00000000E+00
  0.00000000E+00  0.00000000E+00  0.00000000E+00
  0.00000000E+00  0.00000000E+00  0.00000000E+00
  0.00000000E+00  0.00000000E+00  0.00000000E+00
  0.00000000E+00  0.00000000E+00  0.00000000E+00
  0.00000000E+00  0.00000000E+00  0.00000000E+00
  0.00000000E+00  0.00000000E+00  0.00000000E+00
  0.00000000E+00  0.00000000E+00  0.00000000E+00
  0.00000000E+00  0.00000000E+00  0.00000000E+00
  0.00000000E+00  0.00000000E+00  0.00000000E+00
  0.00000000E+00  0.00000000E+00  0.00000000E+00
  0.00000000E+00  0.00000000E+00  0.00000000E+00
  0.00000000E+00  0.00000000E+00  0.00000000E+00
  0.00000000E+00  0.00000000E+00  0.00000000E+00
  0.00000000E+00  0.00000000E+00  0.00000000E+00
  0.00000000E+00  0.00000000E+00  0.00000000E+00
  0.00000000E+00  0.00000000E+00  0.00000000E+00
  0.00000000E+00  0.00000000E+00  0.00000000E+00
  0.00000000E+00  0.00000000E+00  0.00000000E+00
  0.00000000E+00  0.00000000E+00  0.00000000E+00
  0.00000000E+00  0.00000000E+00  0.00000000E+00
  0.00000000E+00  0.00000000E+00  0.00000000E+00
  0.00000000E+00  0.00000000E+00  0.00000000E+00
  0.00000000E+00  0.00000000E+00  0.00000000E+00
  0.00000000E+00  0.00000000E+00  0.00000000E+00
  0.00000000E+00  0.00000000E+00  0.00000000E+00
  0.00000000E+00  0.00000000E+00  0.00000000E+00
  0.00000000E+00  0.00000000E+00  0.00000000E+00
  0.00000000E+00  0.00000000E+00  0.00000000E+00
  0.00000000E+00  0.00000000E+00  0.00000000E+00
  0.00000000E+00  0.00000000E+00  0.00000000E+00
  0.00000000E+00  0.00000000E+00  0.00000000E+00
  0.00000000E+00  0.00000000E+00  0.00000000E+00
  0.00000000E+00  0.00000000E+00  0.00000000E+00
  0.00000000E+00  0.00000000E+00  0.00000000E+00
  0.00000000E+00  0.00000000E+00  0.00000000E+00
  0.00000000E+00  0.00000000E+00  0.00000000E+00
  0.00000000E+00  0.00000000E+00  0.00000000E+00
  0.00000000E+00  0.00000000E+00  0.00000000E+00
  0.00000000E+00  0.00000000E+00  0.00000000E+00
  0.00000000E+00  0.00000000E+00  0.00000000E+00
  0.00000000E+00  0.00000000E+00  0.00000000E+00
  0.00000000E+00  0.00000000E+00  0.00000000E+00
  0.00000000E+00  0.00000000E+00  0.00000000E+00
  0.00000000E+00  0.00000000E+00  0.00000000E+00
  0.00000000E+00  0.00000000E+00  0.00000000E+00
  0.00000000E+00  0.00000000E+00  0.00000000E+00
  0.00000000E+00  0.00000000E+00  0.00000000E+00
  0.00000000E+00  0.00000000E+00  0.00000000E+00
  0.00000000E+00  0.00000000E+00  0.00000000E+00
  0.00000000E+00  0.00000000E+00  0.00000000E+00
  0.00000000E+00  0.00000000E+00  0.00000000E+00
  0.00000000E+00  0.00000000E+00  0.00000000E+00
  0.00000000E+00  0.00000000E+00  0.00000000E+00
  0.00000000E+00  0.00000000E+00  0.00000000E+00
  0.00000000E+00  0.00000000E+00  0.00000000E+00
  0.00000000E+00  0.00000000E+00  0.00000000E+00
