Num irrep kpoints: 4
0
Gamma
2 2 2
0.5 0.5 0.5
