Mg32 O31                                
   1.00000000000000     
     8.4937268427999992    0.0000000000000000    0.0000000000000000
     0.0000000000000000    8.4937268427999992    0.0000000000000000
     0.0000000000000000    0.0000000000000000    8.4937268427999992
   Mg   O 
    32    31
Direct
 -0.0204995378326114 -0.0002632932013652  0.9999646888868806
 -0.0026488228447942 -0.0005758719397626  0.5000445165583649
 -0.0026420314457820  0.4996616076024520 -0.0002202947671620
 -0.0014408589255991  0.4994491993455076  0.4998321394229194
  0.5202885859090960 -0.0000309181808562  0.0001838310534268
  0.5024298326510563 -0.0003254340918235  0.5000071342867957
  0.5025210001117014  0.4998731413371154 -0.0000317513095004
  0.5011861548352655  0.4996529354221531  0.4999019843512917
  0.0001823854529237  0.2494618950743564  0.2498241911489053
  0.0003229940595194  0.2494644696291380  0.7500057077629168
 -0.0001200826932984  0.7497223648819039  0.2497904415071415
  0.0000188388895693  0.7496601589060654  0.7501015597654198
  0.4998322640832182  0.2496914847353888  0.2498519669807105
  0.4999444867201332  0.2496779176805270  0.7501335142360139
  0.4994395473262471  0.7498931099973277  0.2499168760485852
  0.4994887122372389  0.7498978056983084  0.7501358783899288
  0.2497983925357613  0.9995829743627040  0.2704090145643004
  0.2499567345042750  0.9995641790141727  0.7294894171042425
  0.2498352140864403  0.4995691564042766  0.2524123978457596
  0.2500385199244624  0.4995885821575708  0.7472949250687083
  0.7498900586314659 -0.0001110936450319  0.2525555767581891
  0.7498697622363750 -0.0001516061285174  0.7475873998487016
  0.7498892501905352  0.4998542915735996  0.2511072041981118
  0.7499633524566899  0.4998698173200333  0.7486951719526651
  0.2501309846451394  0.2701523489252532  0.9998667700757127
  0.2501400108027561  0.2519973631567446  0.4999106077764475
  0.2497066990391101  0.7292402380896842  0.9999017083422868
  0.2496472707346345  0.7470388534103601  0.4999115747142547
  0.7499712197582612  0.2523783916019788  0.0000085649037473
  0.7500060908287395  0.2508801644283806  0.4999967194145377
  0.7498130825823631  0.7474775089034530  0.0000444031877724
  0.7497562712204098  0.7485170771955739  0.5000465674082367
  0.2498939594236406 -0.0004766855569835  0.5000108137777113
  0.2499488644746220  0.4997120840357828 -0.0001495572433931
  0.2498890055067939  0.4994413970968413  0.4998242981491559
  0.7499042548313504 -0.0000593699644758  0.0000845932170774
  0.7498509991437576 -0.0002939414672075  0.5000711333180896
  0.7499214468406608  0.4999164841131268 -0.0000781480330707
  0.7498691891551623  0.4996555152840481  0.4998836876080724
  0.2500050099819335  0.2437436328463986  0.2440036405979020
  0.2501273011130035  0.2438021260273611  0.7558642382422983
  0.2497170721019742  0.7555612104621037  0.2441954622176444
  0.2498350559480700  0.7554979879615831  0.7557110215854129
  0.7499902386546853  0.2483097184016127  0.2484510041761931
  0.7500309822749949  0.2482954370315680  0.7515513137124678
  0.7497769362628264  0.7514396132109090  0.2484407555411464
  0.7498049506100490  0.7514217788492195  0.7516405481276762
  0.0058735528509820 -0.0003391520662361  0.2441119591755023
  0.0059709366755986 -0.0003628531932654  0.7559025865287936
  0.0014130582660447  0.4995764841288459  0.2483248487478590
  0.0014989770450262  0.4995688491164760  0.7513346273940255
  0.4938705630205389 -0.0001921755986772  0.2441049727325143
  0.4938882475193517 -0.0001928801261599  0.7559797207165118
  0.4982901764343465  0.4997920122953872  0.2484194326038449
  0.4984973693456830  0.4997971532666223  0.7514378915902463
  0.0060487977137642  0.2437677701512444 -0.0000945474361364
  0.0016646370634342  0.2479583824012099  0.4999415448721398
  0.0058871155276054  0.7555821141043523 -0.0000513779271534
  0.0011603722911428  0.7510072473115359  0.4999654933402526
  0.4940981809932191  0.2440378536793005  0.0000152990235198
  0.4984907942201721  0.2481184310337185  0.4999580688698064
  0.4936493954712055  0.7558289757745467  0.0000541436410031
  0.4982084714270558  0.7512092988225391  0.4999671387465744
 
  0.00000000E+00  0.00000000E+00  0.00000000E+00
  0.00000000E+00  0.00000000E+00  0.00000000E+00
  0.00000000E+00  0.00000000E+00  0.00000000E+00
  0.00000000E+00  0.00000000E+00  0.00000000E+00
  0.00000000E+00  0.00000000E+00  0.00000000E+00
  0.00000000E+00  0.00000000E+00  0.00000000E+00
  0.00000000E+00  0.00000000E+00  0.00000000E+00
  0.00000000E+00  0.00000000E+00  0.00000000E+00
  0.00000000E+00  0.00000000E+00  0.00000000E+00
  0.00000000E+00  0.00000000E+00  0.00000000E+00
  0.00000000E+00  0.00000000E+00  0.00000000E+00
  0.00000000E+00  0.00000000E+00  0.00000000E+00
  0.00000000E+00  0.00000000E+00  0.00000000E+00
  0.00000000E+00  0.00000000E+00  0.00000000E+00
  0.00000000E+00  0.00000000E+00  0.00000000E+00
  0.00000000E+00  0.00000000E+00  0.00000000E+00
  0.00000000E+00  0.00000000E+00  0.00000000E+00
  0.00000000E+00  0.00000000E+00  0.00000000E+00
  0.00000000E+00  0.00000000E+00  0.00000000E+00
  0.00000000E+00  0.00000000E+00  0.00000000E+00
  0.00000000E+00  0.00000000E+00  0.00000000E+00
  0.00000000E+00  0.00000000E+00  0.00000000E+00
  0.00000000E+00  0.00000000E+00  0.00000000E+00
  0.00000000E+00  0.00000000E+00  0.00000000E+00
  0.00000000E+00  0.00000000E+00  0.00000000E+00
  0.00000000E+00  0.00000000E+00  0.00000000E+00
  0.00000000E+00  0.00000000E+00  0.00000000E+00
  0.00000000E+00  0.00000000E+00  0.00000000E+00
  0.00000000E+00  0.00000000E+00  0.00000000E+00
  0.00000000E+00  0.00000000E+00  0.00000000E+00
  0.00000000E+00  0.00000000E+00  0.00000000E+00
  0.00000000E+00  0.00000000E+00  0.00000000E+00
  0.00000000E+00  0.00000000E+00  0.00000000E+00
  0.00000000E+00  0.00000000E+00  0.00000000E+00
  0.00000000E+00  0.00000000E+00  0.00000000E+00
  0.00000000E+00  0.00000000E+00  0.00000000E+00
  0.00000000E+00  0.00000000E+00  0.00000000E+00
  0.00000000E+00  0.00000000E+00  0.00000000E+00
  0.00000000E+00  0.00000000E+00  0.00000000E+00
  0.00000000E+00  0.00000000E+00  0.00000000E+00
  0.00000000E+00  0.00000000E+00  0.00000000E+00
  0.00000000E+00  0.00000000E+00  0.00000000E+00
  0.00000000E+00  0.00000000E+00  0.00000000E+00
  0.00000000E+00  0.00000000E+00  0.00000000E+00
  0.00000000E+00  0.00000000E+00  0.00000000E+00
  0.00000000E+00  0.00000000E+00  0.00000000E+00
  0.00000000E+00  0.00000000E+00  0.00000000E+00
  0.00000000E+00  0.00000000E+00  0.00000000E+00
  0.00000000E+00  0.00000000E+00  0.00000000E+00
  0.00000000E+00  0.00000000E+00  0.00000000E+00
  0.00000000E+00  0.00000000E+00  0.00000000E+00
  0.00000000E+00  0.00000000E+00  0.00000000E+00
  0.00000000E+00  0.00000000E+00  0.00000000E+00
  0.00000000E+00  0.00000000E+00  0.00000000E+00
  0.00000000E+00  0.00000000E+00  0.00000000E+00
  0.00000000E+00  0.00000000E+00  0.00000000E+00
  0.00000000E+00  0.00000000E+00  0.00000000E+00
  0.00000000E+00  0.00000000E+00  0.00000000E+00
  0.00000000E+00  0.00000000E+00  0.00000000E+00
  0.00000000E+00  0.00000000E+00  0.00000000E+00
  0.00000000E+00  0.00000000E+00  0.00000000E+00
  0.00000000E+00  0.00000000E+00  0.00000000E+00
  0.00000000E+00  0.00000000E+00  0.00000000E+00
