Mg32 O31                                
   1.00000000000000     
     8.4937268427999992    0.0000000000000000    0.0000000000000000
     0.0000000000000000    8.4937268427999992    0.0000000000000000
     0.0000000000000000    0.0000000000000000    8.4937268427999992
   Mg   O 
    32    31
Direct
  0.9971764670666943  0.9997674258444036  0.9998255800337503
  0.9991779906093115  0.9993233020035248  0.5002963028869516
  0.9993726102346940  0.4997398544340115  0.9996718958521456
  0.9997110193547343  0.4993932732895274  0.4997343661751046
  0.5026862635254048  0.9997817257461392  0.0001658626495669
  0.5004895261720606  0.9995364307817241  0.5001124472466287
  0.5006716077857334  0.5001114082947495  0.9999312138901715
  0.5000877314031769  0.4998203251231814  0.4998784281491595
  0.0002763394155565  0.2495942948768786  0.2498244030137613
  0.0003766398414129  0.2495961232496597  0.7498508052576369
  0.9994540178775821  0.7496031050713938  0.2499265516679188
  0.9995929390730325  0.7495455075986825  0.7499377554372941
  0.4999304628167920  0.2497752974391005  0.2500989422481155
  0.5003467218798789  0.2497735922374247  0.7499456851217232
  0.4994921108980961  0.7499553023701964  0.2499836456225353
  0.4998355811842359  0.7499148584309268  0.7502375033584556
  0.2497659474219986  0.9996504877573287  0.2525538061475245
  0.2500684857325695  0.9995855340667887  0.7475107237776513
  0.2497650976674066  0.4994399066655149  0.2504057841841316
  0.2501123498242848  0.4994412698979716  0.7492583244785820
  0.7499465618628278  0.0000599464887969  0.2510309554116574
  0.7498338845412249  0.9999786860448765  0.7493100779189561
  0.7496885042419521  0.4995946316747037  0.2501208639257513
  0.7499378412690305  0.4995486332946584  0.7496981930803344
  0.2501486135831996  0.2519725063141109  0.9999493765691270
  0.2501879054241272  0.2501544111057115  0.4999733811477398
  0.2497012884847436  0.7472782081871685  0.0000013485057266
  0.2494738841488697  0.7487088111863400  0.4999353422734245
  0.7501232023834277  0.2509525067274225  0.9999811370220684
  0.7501777352897392  0.2500902387607624  0.4998069172836992
  0.7498305527361566  0.7492823221480620  0.0000604551108196
  0.7493976440205685  0.7495604645896137  0.4998631102561291
  0.2498318856626724  0.9992281243192096  0.5001514220116690
  0.2500634935860546  0.4997796677886868  0.9997785039624105
  0.2499363577220990  0.4994306132471920  0.4998118629386212
  0.7499857687200091  0.0002874261456114  0.0002291570704358
  0.7498376022968216  0.9998818814644039  0.5001441867639826
  0.7499414935938304  0.4999688203501051  0.9999530404849750
  0.7498406675193081  0.4996980148954009  0.4998451362428327
  0.2500691118759306  0.2502895476151465  0.2507480917466651
  0.2504629781828598  0.2504285594563456  0.7490312428019408
  0.2493550110235958  0.7487821503271448  0.2507880411187600
  0.2497466319414485  0.7487219450489278  0.7491552650499145
  0.7501251436756817  0.2499217569538246  0.2500400430273402
  0.7501929997457850  0.2498549117703774  0.7498099201353199
  0.7495605240590706  0.7497705344944237  0.2500634317435697
  0.7496654194752281  0.7497387690144421  0.7498973428729769
  0.9989126665264152  0.9996761129911462  0.2510555738723070
  0.9988927863818660  0.9996120596257967  0.7491154831948563
  0.9997797360246352  0.4993908563824547  0.2497433178484343
  0.9998693185799965  0.4994310512306868  0.7496869831172788
  0.5007104391185493  0.9998100189376871  0.2510609482617241
  0.5010572878853665  0.9997308824194135  0.7492419750743906
  0.4997111338598188  0.4999025212759278  0.2498837321877758
  0.5001769258970867  0.4999059103656478  0.7499481265487020
  0.9994280669030644  0.2507471037889104  0.9997006275823068
  0.0002800844251709  0.2495447648636855  0.4999104500013942
  0.9986845133434130  0.7487869482930307  0.9998016294079193
  0.9993344578660839  0.7492353519546739  0.4999636833193009
  0.5010311833185099  0.2508510304807459  0.0000760372366457
  0.5000437367021107  0.2497342305115424  0.4999001676135748
  0.5008434971007674  0.7492091809084940  0.0001669738621644
  0.4995838441162093  0.7496021804775594  0.4999734322955547
 
  0.00000000E+00  0.00000000E+00  0.00000000E+00
  0.00000000E+00  0.00000000E+00  0.00000000E+00
  0.00000000E+00  0.00000000E+00  0.00000000E+00
  0.00000000E+00  0.00000000E+00  0.00000000E+00
  0.00000000E+00  0.00000000E+00  0.00000000E+00
  0.00000000E+00  0.00000000E+00  0.00000000E+00
  0.00000000E+00  0.00000000E+00  0.00000000E+00
  0.00000000E+00  0.00000000E+00  0.00000000E+00
  0.00000000E+00  0.00000000E+00  0.00000000E+00
  0.00000000E+00  0.00000000E+00  0.00000000E+00
  0.00000000E+00  0.00000000E+00  0.00000000E+00
  0.00000000E+00  0.00000000E+00  0.00000000E+00
  0.00000000E+00  0.00000000E+00  0.00000000E+00
  0.00000000E+00  0.00000000E+00  0.00000000E+00
  0.00000000E+00  0.00000000E+00  0.00000000E+00
  0.00000000E+00  0.00000000E+00  0.00000000E+00
  0.00000000E+00  0.00000000E+00  0.00000000E+00
  0.00000000E+00  0.00000000E+00  0.00000000E+00
  0.00000000E+00  0.00000000E+00  0.00000000E+00
  0.00000000E+00  0.00000000E+00  0.00000000E+00
  0.00000000E+00  0.00000000E+00  0.00000000E+00
  0.00000000E+00  0.00000000E+00  0.00000000E+00
  0.00000000E+00  0.00000000E+00  0.00000000E+00
  0.00000000E+00  0.00000000E+00  0.00000000E+00
  0.00000000E+00  0.00000000E+00  0.00000000E+00
  0.00000000E+00  0.00000000E+00  0.00000000E+00
  0.00000000E+00  0.00000000E+00  0.00000000E+00
  0.00000000E+00  0.00000000E+00  0.00000000E+00
  0.00000000E+00  0.00000000E+00  0.00000000E+00
  0.00000000E+00  0.00000000E+00  0.00000000E+00
  0.00000000E+00  0.00000000E+00  0.00000000E+00
  0.00000000E+00  0.00000000E+00  0.00000000E+00
  0.00000000E+00  0.00000000E+00  0.00000000E+00
  0.00000000E+00  0.00000000E+00  0.00000000E+00
  0.00000000E+00  0.00000000E+00  0.00000000E+00
  0.00000000E+00  0.00000000E+00  0.00000000E+00
  0.00000000E+00  0.00000000E+00  0.00000000E+00
  0.00000000E+00  0.00000000E+00  0.00000000E+00
  0.00000000E+00  0.00000000E+00  0.00000000E+00
  0.00000000E+00  0.00000000E+00  0.00000000E+00
  0.00000000E+00  0.00000000E+00  0.00000000E+00
  0.00000000E+00  0.00000000E+00  0.00000000E+00
  0.00000000E+00  0.00000000E+00  0.00000000E+00
  0.00000000E+00  0.00000000E+00  0.00000000E+00
  0.00000000E+00  0.00000000E+00  0.00000000E+00
  0.00000000E+00  0.00000000E+00  0.00000000E+00
  0.00000000E+00  0.00000000E+00  0.00000000E+00
  0.00000000E+00  0.00000000E+00  0.00000000E+00
  0.00000000E+00  0.00000000E+00  0.00000000E+00
  0.00000000E+00  0.00000000E+00  0.00000000E+00
  0.00000000E+00  0.00000000E+00  0.00000000E+00
  0.00000000E+00  0.00000000E+00  0.00000000E+00
  0.00000000E+00  0.00000000E+00  0.00000000E+00
  0.00000000E+00  0.00000000E+00  0.00000000E+00
  0.00000000E+00  0.00000000E+00  0.00000000E+00
  0.00000000E+00  0.00000000E+00  0.00000000E+00
  0.00000000E+00  0.00000000E+00  0.00000000E+00
  0.00000000E+00  0.00000000E+00  0.00000000E+00
  0.00000000E+00  0.00000000E+00  0.00000000E+00
  0.00000000E+00  0.00000000E+00  0.00000000E+00
  0.00000000E+00  0.00000000E+00  0.00000000E+00
  0.00000000E+00  0.00000000E+00  0.00000000E+00
  0.00000000E+00  0.00000000E+00  0.00000000E+00
