Mg32 O31
1.0
8.4937268428 0.0000000000 0.0000000000
0.0000000000 8.4937268428 0.0000000000
0.0000000000 0.0000000000 8.4937268428
Mg O
32 31
direct
0.0020250854 0.9968664959 0.9962108309 Mg
0.0000000000 0.0000000000 0.5000000000 Mg
0.0000000000 0.5000000000 0.0000000000 Mg
0.0000000000 0.5000000000 0.5000000000 Mg
0.5068559648 0.0099431229 0.0066294031 Mg
0.5000000000 0.0000000000 0.5000000000 Mg
0.5000000000 0.5000000000 0.0000000000 Mg
0.5000000000 0.5000000000 0.5000000000 Mg
0.0000000000 0.2500000000 0.2500000000 Mg
0.0000000000 0.2500000000 0.7500000000 Mg
0.0000000000 0.7500000000 0.2500000000 Mg
0.0000000000 0.7500000000 0.7500000000 Mg
0.5000000000 0.2500000000 0.2500000000 Mg
0.5000000000 0.2500000000 0.7500000000 Mg
0.5000000000 0.7500000000 0.2500000000 Mg
0.5000000000 0.7500000000 0.7500000000 Mg
0.2374858280 0.9837845595 0.2557732802 Mg
0.2503676838 0.9805841171 0.7557876962 Mg
0.2500000000 0.5000000000 0.2500000000 Mg
0.2500000000 0.5000000000 0.7500000000 Mg
0.7500000000 0.0000000000 0.2500000000 Mg
0.7500000000 0.0000000000 0.7500000000 Mg
0.7500000000 0.5000000000 0.2500000000 Mg
0.7500000000 0.5000000000 0.7500000000 Mg
0.2650898135 0.2504927158 0.9906163677 Mg
0.2500000000 0.2500000000 0.5000000000 Mg
0.2319679194 0.7598123079 0.9925394370 Mg
0.2500000000 0.7500000000 0.5000000000 Mg
0.7500000000 0.2500000000 0.0000000000 Mg
0.7500000000 0.2500000000 0.5000000000 Mg
0.7500000000 0.7500000000 0.0000000000 Mg
0.7500000000 0.7500000000 0.5000000000 Mg
0.2500000000 0.0000000000 0.5000000000 O
0.2500000000 0.5000000000 0.0000000000 O
0.2500000000 0.5000000000 0.5000000000 O
0.7500000000 0.0000000000 0.0000000000 O
0.7500000000 0.0000000000 0.5000000000 O
0.7500000000 0.5000000000 0.0000000000 O
0.7500000000 0.5000000000 0.5000000000 O
0.2500000000 0.2500000000 0.2500000000 O
0.2500000000 0.2500000000 0.7500000000 O
0.2500000000 0.7500000000 0.2500000000 O
0.2500000000 0.7500000000 0.7500000000 O
0.7500000000 0.2500000000 0.2500000000 O
0.7500000000 0.2500000000 0.7500000000 O
0.7500000000 0.7500000000 0.2500000000 O
0.7500000000 0.7500000000 0.7500000000 O
0.0000000000 0.0000000000 0.2500000000 O
0.0000000000 0.0000000000 0.7500000000 O
0.0000000000 0.5000000000 0.2500000000 O
0.0000000000 0.5000000000 0.7500000000 O
0.5000000000 0.0000000000 0.2500000000 O
0.5000000000 0.0000000000 0.7500000000 O
0.5000000000 0.5000000000 0.2500000000 O
0.5000000000 0.5000000000 0.7500000000 O
0.0000000000 0.2500000000 0.0000000000 O
0.0000000000 0.2500000000 0.5000000000 O
0.0000000000 0.7500000000 0.0000000000 O
0.0000000000 0.7500000000 0.5000000000 O
0.5000000000 0.2500000000 0.0000000000 O
0.5000000000 0.2500000000 0.5000000000 O
0.5000000000 0.7500000000 0.0000000000 O
0.5000000000 0.7500000000 0.5000000000 O
