Mg32 O31                                
   1.00000000000000     
     8.4937268427999992    0.0000000000000000    0.0000000000000000
     0.0000000000000000    8.4937268427999992    0.0000000000000000
     0.0000000000000000    0.0000000000000000    8.4937268427999992
   Mg   O 
    32    31
Direct
 -0.0028235329333053 -0.0002325741555931  0.9998255800337477
 -0.0008220093906920 -0.0006766979964769  0.5002963028869523
 -0.0006273897653038  0.4997398544340108 -0.0003281041478541
 -0.0002889806452672  0.4993932732895281  0.4997343661751067
  0.5026862635254019 -0.0002182742538625  0.0001658626495692
  0.5004895261720632 -0.0004635692182789  0.5001124472466292
  0.5006716077857315  0.5001114082947488 -0.0000687861098301
  0.5000877314031766  0.4998203251231798  0.4998784281491572
  0.0002763394155584  0.2495942948768805  0.2498244030137645
  0.0003766398414112  0.2495961232496609  0.7498508052576353
 -0.0005459821224181  0.7496031050713958  0.2499265516679180
 -0.0004070609269686  0.7495455075986861  0.7499377554372925
  0.4999304628167942  0.2497752974391038  0.2500989422481140
  0.5003467218798825  0.2497735922374234  0.7499456851217245
  0.4994921108980935  0.7499553023701937  0.2499836456225372
  0.4998355811842363  0.7499148584309303  0.7502375033584565
  0.2497659474220019  0.9996504877573255  0.2525538061475248
  0.2500684857325682  0.9995855340667871  0.7475107237776543
  0.2497650976674092  0.4994399066655166  0.2504057841841318
  0.2501123498242868  0.4994412698979697  0.7492583244785852
  0.7499465618628308  0.0000599464887963  0.2510309554116609
  0.7498338845412266 -0.0000213139551203  0.7493100779189547
  0.7496885042419520  0.4995946316747066  0.2501208639257482
  0.7499378412690293  0.4995486332946568  0.7496981930803317
  0.2501486135832007  0.2519725063141120  0.9999493765691267
  0.2501879054241279  0.2501544111057112  0.4999733811477429
  0.2497012884847458  0.7472782081871662  0.0000013485057288
  0.2494738841488697  0.7487088111863411  0.4999353422734251
  0.7501232023834300  0.2509525067274210 -0.0000188629779331
  0.7501777352897392  0.2500902387607656  0.4998069172836984
  0.7498305527361587  0.7492823221480631  0.0000604551108189
  0.7493976440205690  0.7495604645896125  0.4998631102561279
  0.2498318856626698 -0.0007718756807931  0.5001514220116698
  0.2500634935860529  0.4997796677886892 -0.0002214960375915
  0.2499363577220965  0.4994306132471935  0.4998118629386205
  0.7499857687200118  0.0002874261456103  0.0002291570704338
  0.7498376022968201 -0.0001181185355962  0.5001441867639856
  0.7499414935938324  0.4999688203501024 -0.0000469595150225
  0.7498406675193076  0.4996980148954003  0.4998451362428342
  0.2500691118759300  0.2502895476151470  0.2507480917466663
  0.2504629781828569  0.2504285594563471  0.7490312428019421
  0.2493550110235978  0.7487821503271482  0.2507880411187577
  0.2497466319414494  0.7487219450489244  0.7491552650499167
  0.7501251436756838  0.2499217569538247  0.2500400430273430
  0.7501929997457876  0.2498549117703746  0.7498099201353228
  0.7495605240590677  0.7497705344944235  0.2500634317435687
  0.7496654194752292  0.7497387690144441  0.7498973428729794
 -0.0010873334735870 -0.0003238870088515  0.2510555738723080
 -0.0011072136181336 -0.0003879403742048  0.7491154831948584
 -0.0002202639753662  0.4993908563824523  0.2497433178484336
 -0.0001306814200059  0.4994310512306837  0.7496869831172767
  0.5007104391185508 -0.0001899810623122  0.2510609482617243
  0.5010572878853685 -0.0002691175805874  0.7492419750743926
  0.4997111338598193  0.4999025212759292  0.2498837321877761
  0.5001769258970853  0.4999059103656444  0.7499481265486986
 -0.0005719330969322  0.2507471037889087 -0.0002993724176932
  0.0002800844251684  0.2495447648636882  0.4999104500013936
 -0.0013154866565889  0.7487869482930340 -0.0001983705920814
 -0.0006655421339142  0.7492353519546769  0.4999636833192976
  0.5010311833185125  0.2508510304807470  0.0000760372366473
  0.5000437367021119  0.2497342305115417  0.4999001676135765
  0.5008434971007649  0.7492091809084906  0.0001669738621614
  0.4995838441162100  0.7496021804775572  0.4999734322955555
 
  0.00000000E+00  0.00000000E+00  0.00000000E+00
  0.00000000E+00  0.00000000E+00  0.00000000E+00
  0.00000000E+00  0.00000000E+00  0.00000000E+00
  0.00000000E+00  0.00000000E+00  0.00000000E+00
  0.00000000E+00  0.00000000E+00  0.00000000E+00
  0.00000000E+00  0.00000000E+00  0.00000000E+00
  0.00000000E+00  0.00000000E+00  0.00000000E+00
  0.00000000E+00  0.00000000E+00  0.00000000E+00
  0.00000000E+00  0.00000000E+00  0.00000000E+00
  0.00000000E+00  0.00000000E+00  0.00000000E+00
  0.00000000E+00  0.00000000E+00  0.00000000E+00
  0.00000000E+00  0.00000000E+00  0.00000000E+00
  0.00000000E+00  0.00000000E+00  0.00000000E+00
  0.00000000E+00  0.00000000E+00  0.00000000E+00
  0.00000000E+00  0.00000000E+00  0.00000000E+00
  0.00000000E+00  0.00000000E+00  0.00000000E+00
  0.00000000E+00  0.00000000E+00  0.00000000E+00
  0.00000000E+00  0.00000000E+00  0.00000000E+00
  0.00000000E+00  0.00000000E+00  0.00000000E+00
  0.00000000E+00  0.00000000E+00  0.00000000E+00
  0.00000000E+00  0.00000000E+00  0.00000000E+00
  0.00000000E+00  0.00000000E+00  0.00000000E+00
  0.00000000E+00  0.00000000E+00  0.00000000E+00
  0.00000000E+00  0.00000000E+00  0.00000000E+00
  0.00000000E+00  0.00000000E+00  0.00000000E+00
  0.00000000E+00  0.00000000E+00  0.00000000E+00
  0.00000000E+00  0.00000000E+00  0.00000000E+00
  0.00000000E+00  0.00000000E+00  0.00000000E+00
  0.00000000E+00  0.00000000E+00  0.00000000E+00
  0.00000000E+00  0.00000000E+00  0.00000000E+00
  0.00000000E+00  0.00000000E+00  0.00000000E+00
  0.00000000E+00  0.00000000E+00  0.00000000E+00
  0.00000000E+00  0.00000000E+00  0.00000000E+00
  0.00000000E+00  0.00000000E+00  0.00000000E+00
  0.00000000E+00  0.00000000E+00  0.00000000E+00
  0.00000000E+00  0.00000000E+00  0.00000000E+00
  0.00000000E+00  0.00000000E+00  0.00000000E+00
  0.00000000E+00  0.00000000E+00  0.00000000E+00
  0.00000000E+00  0.00000000E+00  0.00000000E+00
  0.00000000E+00  0.00000000E+00  0.00000000E+00
  0.00000000E+00  0.00000000E+00  0.00000000E+00
  0.00000000E+00  0.00000000E+00  0.00000000E+00
  0.00000000E+00  0.00000000E+00  0.00000000E+00
  0.00000000E+00  0.00000000E+00  0.00000000E+00
  0.00000000E+00  0.00000000E+00  0.00000000E+00
  0.00000000E+00  0.00000000E+00  0.00000000E+00
  0.00000000E+00  0.00000000E+00  0.00000000E+00
  0.00000000E+00  0.00000000E+00  0.00000000E+00
  0.00000000E+00  0.00000000E+00  0.00000000E+00
  0.00000000E+00  0.00000000E+00  0.00000000E+00
  0.00000000E+00  0.00000000E+00  0.00000000E+00
  0.00000000E+00  0.00000000E+00  0.00000000E+00
  0.00000000E+00  0.00000000E+00  0.00000000E+00
  0.00000000E+00  0.00000000E+00  0.00000000E+00
  0.00000000E+00  0.00000000E+00  0.00000000E+00
  0.00000000E+00  0.00000000E+00  0.00000000E+00
  0.00000000E+00  0.00000000E+00  0.00000000E+00
  0.00000000E+00  0.00000000E+00  0.00000000E+00
  0.00000000E+00  0.00000000E+00  0.00000000E+00
  0.00000000E+00  0.00000000E+00  0.00000000E+00
  0.00000000E+00  0.00000000E+00  0.00000000E+00
  0.00000000E+00  0.00000000E+00  0.00000000E+00
  0.00000000E+00  0.00000000E+00  0.00000000E+00
