Mg4 O3                                  
   1.00000000000000     
     4.2468940000000002    0.0000000000000000    0.0000000000000000
     0.0000000000000000    4.2468940000000002    0.0000000000000000
     0.0000000000000000    0.0000000000000000    4.2468940000000002
   Mg   O 
     4     3
Direct
  0.0051896248240553  0.9835077947659414  0.9945137498637422
  0.0047282952713914  0.4827940046010823  0.4942929782542009
  0.5040349492352973  0.9821499237428384  0.4944941755970405
  0.5058945352747628  0.4828206016032297  0.9940420309511140
  0.5045613848356609  0.4811103128264023  0.4933877756337353
  0.0013796816599694  0.9829379087234287  0.4953360299212051
  0.0083465288988691  0.4848714537370853  0.9941122597789658
 
  0.00000000E+00  0.00000000E+00  0.00000000E+00
  0.00000000E+00  0.00000000E+00  0.00000000E+00
  0.00000000E+00  0.00000000E+00  0.00000000E+00
  0.00000000E+00  0.00000000E+00  0.00000000E+00
  0.00000000E+00  0.00000000E+00  0.00000000E+00
  0.00000000E+00  0.00000000E+00  0.00000000E+00
  0.00000000E+00  0.00000000E+00  0.00000000E+00
