Default POSCAR of H2 molecule
   1.00000000000000     
    10.0000000000000000    0.0000000000000000    0.0000000000000000
     0.0000000000000000   10.0999999999999996    0.0000000000000000
     0.0000000000000000    0.0000000000000000   10.1999999999999993
   H 
     2
Direct
  0.0127786214343502  0.0000000000000000  0.0000000000000000
  0.0872213785656513  0.0000000000000000  0.0000000000000000
 
  0.00000000E+00  0.00000000E+00  0.00000000E+00
  0.00000000E+00  0.00000000E+00  0.00000000E+00
